1617273000
1617290580
1617705000
1617720780
1617791400
1617806820
1617877800
1617893580
1617964200
1617980100
1618223400
1618240080
1618396200
1618412760
1618482600
1618497480
1618569000
1618585200
1618828200
1618842600
1618914600
1618914600
1618931700
1619001000
1618914600
1618932600
1619015700
1619087400
1619101800
1619173800
1619189040
1619433000
1619447520
1619519400
1619533620
1619605800
1619621280
1619621340
1619692200
1619709480
1619778600
1619794440
